p tdp 30 53
18 28
12 20
10 26
5 9
8 21
6 13
2 7
4 16
13 20
5 11
14 23
7 24
5 29
19 21
17 22
14 27
4 17
18 27
15 25
15 29
1 6
10 21
12 21
27 30
3 16
19 22
16 23
7 12
14 25
6 18
1 20
13 30
6 10
2 16
13 17
6 28
19 24
20 29
13 21
7 15
11 27
3 20
1 11
2 3
11 22
12 24
16 19
22 28
10 25
10 18
10 11
6 27
4 20
